# Solution for model micodag
# Objective value = 7.1469262691568405e+00
s_0_1 0
s_1_0 0
s_1_3 0
s_3_1 0
s_1_4 0
s_4_1 2.3553880282759909e-01
s_2_3 0
s_3_2 1.9181661251670956e-01
s_2_5 6.3574732328522110e-01
s_5_2 0
s_3_4 0
s_4_3 3.9963871942802687e-01
s_4_5 0
s_5_4 0
s_4_6 0
s_6_4 4.6952583926548757e+00
s_4_7 0
s_7_4 4.6952583926548757e+00
s_5_6 0
s_6_5 1.1864598404353770e+00
s_0_0 9.2924083338133290e-01
s_1_1 6.3700088334531468e-01
s_2_2 2.8773832832736432e+00
s_3_3 6.3060935474433233e-01
s_4_4 4.6952583926548757e+00
s_5_5 1.2250541504773653e+00
s_6_6 1.7873189376690770e+00
s_7_7 2.1374941984451987e+00
Gamma_0_0 9.6397138618391254e-01
Gamma_0_1 0
Gamma_0_2 0
Gamma_0_3 0
Gamma_0_4 0
Gamma_0_5 0
Gamma_0_6 0
Gamma_0_7 0
Gamma_1_0 0
Gamma_1_1 7.9812335095855658e-01
Gamma_1_2 0
Gamma_1_3 0
Gamma_1_4 0
Gamma_1_5 0
Gamma_1_6 0
Gamma_1_7 0
Gamma_2_0 0
Gamma_2_1 0
Gamma_2_2 1.6962851420895142e+00
Gamma_2_3 0
Gamma_2_4 0
Gamma_2_5 -7.9733764697599818e-01
Gamma_2_6 0
Gamma_2_7 0
Gamma_3_0 0
Gamma_3_1 0
Gamma_3_2 4.3796873463377584e-01
Gamma_3_3 7.9410915795269166e-01
Gamma_3_4 0
Gamma_3_5 0
Gamma_3_6 0
Gamma_3_7 0
Gamma_4_0 0
Gamma_4_1 -4.8532340024729870e-01
Gamma_4_2 0
Gamma_4_3 6.3216985014157934e-01
Gamma_4_4 8.1395120344414340e-01
Gamma_4_5 0
Gamma_4_6 0
Gamma_4_7 0
Gamma_5_0 0
Gamma_5_1 0
Gamma_5_2 0
Gamma_5_3 0
Gamma_5_4 0
Gamma_5_5 1.1068216434807214e+00
Gamma_5_6 0
Gamma_5_7 0
Gamma_6_0 0
Gamma_6_1 0
Gamma_6_2 0
Gamma_6_3 0
Gamma_6_4 -8.3368881265515937e-01
Gamma_6_5 1.0892473733892485e+00
Gamma_6_6 1.3369064805247513e+00
Gamma_6_7 0
Gamma_7_0 0
Gamma_7_1 0
Gamma_7_2 0
Gamma_7_3 0
Gamma_7_4 -8.8899538960097857e-01
Gamma_7_5 0
Gamma_7_6 0
Gamma_7_7 1.4620171676301201e+00
psi_0 0
psi_1 2
psi_2 3
psi_3 2
psi_4 1
psi_5 4
psi_6 0
psi_7 0
g_0_0 0
g_0_1 0
g_0_2 0
g_0_3 0
g_0_4 0
g_0_5 0
g_0_6 0
g_0_7 0
g_1_0 0
g_1_1 0
g_1_2 0
g_1_3 0
g_1_4 0
g_1_5 0
g_1_6 0
g_1_7 0
g_2_0 0
g_2_1 0
g_2_2 0
g_2_3 0
g_2_4 0
g_2_5 1
g_2_6 0
g_2_7 0
g_3_0 0
g_3_1 0
g_3_2 1
g_3_3 0
g_3_4 0
g_3_5 0
g_3_6 0
g_3_7 0
g_4_0 0
g_4_1 1
g_4_2 0
g_4_3 1
g_4_4 0
g_4_5 0
g_4_6 0
g_4_7 0
g_5_0 0
g_5_1 0
g_5_2 0
g_5_3 0
g_5_4 0
g_5_5 0
g_5_6 0
g_5_7 0
g_6_0 0
g_6_1 0
g_6_2 0
g_6_3 0
g_6_4 1
g_6_5 1
g_6_6 0
g_6_7 0
g_7_0 0
g_7_1 0
g_7_2 0
g_7_3 0
g_7_4 1
g_7_5 0
g_7_6 0
g_7_7 0
T_0 7.3387334387916781e-02
T_1 4.5098423668359544e-01
T_2 -1.0568812989402119e+00
T_3 4.6106869730894573e-01
T_4 4.1170972281057061e-01
T_5 -2.0298504749102619e-01
T_6 -5.8071669684377980e-01
T_7 -7.5963420764740874e-01
